NAME: ACTUAL_TOURS/amz2102
TYPE: TOUR
COMMENT: RouteID_df1f2f60-c1a7-4c6a-b00e-bbd53d3e4c18
DIMENSION: 90
TOUR_SECTION
74
88
46
30
38
13
40
87
28
34
9
27
25
48
49
64
75
69
39
81
41
85
3
79
2
18
60
21
14
66
78
45
31
56
55
20
24
15
89
29
67
47
16
57
65
5
37
51
58
68
84
4
6
72
7
90
10
62
36
86
59
83
73
43
8
44
70
53
17
42
12
35
63
32
71
11
33
61
1
22
77
50
19
52
82
76
26
80
54
23
-1
EOF
